CMD:
./solvers/bin/cadical --plain --no-reduce -t 1600 ./data/cnfs//139442p1/139442p1.26.cnf

c --- [ banner ] -------------------------------------------------------------
c 
c CaDiCaL SAT Solver
c Copyright (c) 2016-2024
c A. Biere, M. Fleury, N. Froleyks, K. Fazekas, F. Pollitt, T. Faller
c JKU Linz, University of Freiburg, TU Wien
c 
c Version 2.1.3 5296d3d2a9bf48c154ab2acb5e44625776d821bf
c g++ (Gentoo 12.3.1_p20230526 p2) 12.3.1 20230526 -Wall -Wextra -O3 -DNDEBUG
c Sat Aug 9 07:26:21 PDT 2025 Linux cedar2.int.cedar.computecanada.ca 5.14.0-362.24.2.el9_3.x86_64 x86_64
c 
c --- [ limit ] --------------------------------------------------------------
c 
c setting time limit to 1600 seconds real time (due to '-t 1600')
c 
c --- [ parsing input ] ------------------------------------------------------
c 
c reading DIMACS file from './data/cnfs//139442p1/139442p1.26.cnf'
c opening file to read './data/cnfs//139442p1/139442p1.26.cnf'
c found 'p cnf 98917 282835' header
c parsed 282835 clauses in 0.05 seconds process time
c 
c --- [ options ] ------------------------------------------------------------
c 
c   --compact=false                (different from default 'true')
c   --decompose=false              (different from default 'true')
c   --deduplicate=false            (different from default 'true')
c   --elim=false                   (different from default 'true')
c   --probe=false                  (different from default 'true')
c   --reduce=false                 (different from default 'true')
c   --subsume=false                (different from default 'true')
c   --ternary=false                (different from default 'true')
c   --transred=false               (different from default 'true')
c   --vivify=false                 (different from default 'true')
c 
c --- [ solving ] ------------------------------------------------------------
c 
c time measured in process time since initialization
c 
c  seconds  reductions  redundant  irredundant
c         MB    restarts       trail       variables
c          level   conflicts       glue         remaining
c 
c *  0.05 48  0 0   0    0    0  0% 0 272688 71184 72%
c {  0.06 49  0 0   0    0    0  0% 0 272688 71184 72%
c i  0.13 49 59 0  13  352  308 64% 9 272688 71161 72%
c i  0.14 49 56 0  13  409  359 61% 8 272688 71147 72%
c i  0.14 49 56 0  13  411  359 61% 8 272688 71133 72%
c }  0.16 49 53 0  13  627  557 65% 7 272688 71133 72%
c 1  0.16 49 53 0  13  627  557 65% 7 272688 71133 72%
c 
c --- [ result ] -------------------------------------------------------------
c 
s SATISFIABLE
v -1 2 3 4 -5 -6 -7 -8 9 -10 -11 12 -13 -14 -15 -16 17 -18 -19 -20 -21 -22 23
v -24 -25 26 27 -28 -29 30 -31 -32 -33 34 35 36 -37 38 -39 -40 -41 42 -43 -44
v -45 46 47 48 -49 50 -51 -52 53 54 -55 -56 -57 58 59 60 -61 62 63 64 -65 -66
v -67 -68 -69 70 71 72 -73 74 75 76 -77 78 -79 80 -81 -82 -83 84 85 -86 -87 88
v -89 90 -91 -92 -93 -94 -95 96 -97 -98 -99 -100 101 -102 103 104 -105 -106
v 107 -108 109 -110 -111 -112 -113 -114 115 -116 -117 -118 -119 120 -121 122
v -123 -124 -125 126 -127 -128 -129 -130 -131 132 -133 134 -135 -136 -137 -138
v -139 -140 141 142 -143 -144 145 -146 -147 -148 -149 -150 -151 -152 153 -154
v -155 -156 -157 -158 -159 160 -161 -162 163 164 165 166 -167 -168 -169 -170
v -171 -172 -173 -174 -175 -176 -177 -178 -179 -180 -181 -182 -183 -184 -185
v -186 -187 -188 -189 -190 -191 -192 -193 -194 -195 -196 -197 -198 -199 -200
v -201 -202 -203 -204 -205 -206 -207 -208 -209 -210 -211 -212 -213 -214 -215
v -216 -217 -218 -219 -220 -221 -222 -223 -224 -225 -226 -227 -228 -229 -230
v -231 -232 -233 -234 -235 -236 -237 -238 -239 -240 -241 -242 -243 -244 -245
v -246 -247 -248 -249 -250 -251 -252 -253 -254 -255 -256 -257 -258 -259 -260
v -261 -262 -263 -264 -265 -266 -267 -268 -269 -270 -271 -272 -273 -274 -275
v -276 -277 -278 -279 -280 -281 -282 -283 -284 -285 -286 -287 -288 -289 -290
v -291 -292 -293 -294 -295 -296 -297 -298 -299 -300 -301 -302 -303 -304 -305
v -306 -307 -308 -309 -310 -311 -312 -313 -314 -315 -316 -317 -318 -319 -320
v -321 -322 -323 -324 -325 -326 -327 -328 -329 -330 -331 -332 -333 -334 -335
v -336 -337 -338 -339 -340 -341 -342 -343 -344 -345 -346 -347 -348 -349 -350
v -351 -352 -353 -354 -355 -356 -357 -358 -359 -360 -361 -362 -363 -364 -365
v -366 -367 -368 -369 -370 -371 -372 -373 -374 -375 -376 -377 -378 -379 -380
v -381 -382 -383 -384 -385 -386 -387 -388 -389 -390 -391 -392 -393 -394 -395
v -396 -397 -398 -399 -400 -401 -402 -403 -404 -405 406 -407 -408 -409 -410
v -411 -412 -413 -414 -415 -416 417 -418 419 -420 -421 -422 -423 -424 425 -426
v 427 428 -429 -430 431 432 -433 -434 -435 -436 -437 -438 -439 440 441 442
v -443 -444 -445 -446 -447 -448 -449 -450 -451 452 -453 -454 -455 -456 -457
v -458 -459 -460 461 -462 463 -464 -465 -466 -467 -468 469 -470 471 472 -473
v -474 -475 -476 -477 -478 -479 480 481 482 -483 -484 -485 486 487 -488 -489
v -490 -491 -492 -493 -494 -495 -496 -497 -498 -499 -500 -501 502 503 -504 505
v -506 -507 -508 509 -510 -511 -512 -513 -514 -515 -516 -517 -518 519 520 -521
v -522 523 -524 -525 -526 -527 -528 529 -530 531 532 533 -534 -535 -536 537
v -538 -539 -540 541 -542 543 544 -545 -546 -547 -548 -549 -550 -551 -552 -553
v -554 -555 -556 -557 -558 -559 -560 -561 562 -563 -564 -565 566 -567 568 -569
v 570 -571 -572 573 574 575 -576 -577 -578 -579 -580 -581 -582 -583 -584 -585
v 586 -587 -588 589 -590 -591 592 593 594 -595 -596 -597 -598 -599 -600 601
v 602 -603 604 605 -606 607 -608 609 610 611 -612 613 -614 -615 616 -617 -618
v -619 -620 621 -622 -623 -624 -625 626 -627 -628 -629 630 -631 -632 633 -634
v -635 -636 -637 -638 -639 -640 -641 -642 -643 -644 -645 -646 -647 648 -649
v -650 -651 -652 -653 -654 -655 -656 -657 -658 659 -660 661 -662 -663 -664
v -665 -666 667 -668 669 670 -671 -672 673 674 -675 -676 -677 -678 -679 -680
v -681 682 683 684 -685 -686 -687 -688 -689 -690 -691 -692 -693 694 -695 -696
... skipped 8698 lines ...
v -98320 -98321 98322 -98323 -98324 98325 98326 -98327 98328 -98329 -98330
v -98331 98332 98333 -98334 -98335 -98336 -98337 98338 -98339 -98340 98341
v 98342 -98343 -98344 -98345 98346 -98347 -98348 98349 98350 -98351 -98352
v -98353 98354 -98355 -98356 98357 98358 -98359 -98360 -98361 98362 -98363
v -98364 98365 98366 -98367 98368 -98369 -98370 -98371 98372 98373 -98374
v -98375 -98376 -98377 98378 -98379 -98380 98381 98382 -98383 -98384 -98385
v 98386 -98387 -98388 98389 98390 -98391 -98392 -98393 98394 -98395 -98396
v 98397 -98398 98399 -98400 -98401 98402 -98403 -98404 98405 98406 -98407
v -98408 -98409 98410 -98411 -98412 98413 98414 -98415 98416 -98417 -98418
v -98419 98420 98421 -98422 -98423 -98424 -98425 98426 -98427 -98428 98429
v 98430 -98431 98432 -98433 -98434 -98435 98436 98437 -98438 -98439 -98440
v -98441 98442 -98443 -98444 98445 98446 -98447 -98448 -98449 98450 -98451
v -98452 98453 -98454 98455 98456 -98457 -98458 -98459 98460 98461 -98462
v -98463 98464 -98465 -98466 -98467 98468 98469 -98470 -98471 -98472 -98473
v 98474 -98475 -98476 98477 98478 -98479 -98480 -98481 98482 -98483 -98484
v 98485 98486 -98487 98488 -98489 -98490 98491 -98492 98493 -98494 -98495
v 98496 -98497 -98498 98499 98500 -98501 -98502 98503 -98504 -98505 98506
v 98507 -98508 98509 98510 -98511 -98512 -98513 -98514 -98515 -98516 -98517
v -98518 -98519 98520 -98521 -98522 -98523 98524 -98525 -98526 -98527 98528
v 98529 -98530 98531 -98532 -98533 -98534 98535 -98536 -98537 -98538 98539
v -98540 -98541 98542 -98543 -98544 98545 98546 -98547 98548 -98549 -98550
v 98551 -98552 98553 -98554 -98555 98556 -98557 -98558 98559 98560 98561
v -98562 -98563 -98564 98565 98566 -98567 -98568 98569 98570 -98571 -98572
v -98573 -98574 -98575 -98576 -98577 -98578 -98579 98580 -98581 -98582 -98583
v 98584 98585 -98586 -98587 -98588 -98589 -98590 -98591 -98592 -98593 -98594
v 98595 -98596 -98597 -98598 98599 -98600 -98601 98602 -98603 -98604 98605
v 98606 -98607 98608 -98609 -98610 98611 -98612 98613 -98614 -98615 98616
v -98617 -98618 98619 98620 -98621 -98622 98623 -98624 -98625 98626 98627
v -98628 98629 98630 -98631 -98632 -98633 -98634 -98635 -98636 -98637 -98638
v -98639 -98640 -98641 98642 -98643 98644 -98645 -98646 -98647 98648 98649
v -98650 98651 -98652 -98653 -98654 98655 -98656 -98657 -98658 98659 98660
v -98661 -98662 -98663 98664 98665 -98666 -98667 98668 -98669 -98670 98671
v -98672 98673 -98674 -98675 98676 -98677 -98678 98679 98680 -98681 -98682
v 98683 -98684 -98685 98686 98687 -98688 98689 98690 -98691 -98692 -98693
v -98694 -98695 -98696 -98697 -98698 -98699 -98700 -98701 98702 -98703 98704
v -98705 -98706 -98707 98708 98709 -98710 98711 -98712 -98713 -98714 98715
v -98716 -98717 -98718 98719 -98720 -98721 98722 -98723 98724 -98725 -98726
v 98727 -98728 98729 98730 -98731 -98732 -98733 98734 -98735 -98736 98737
v -98738 98739 -98740 -98741 98742 -98743 98744 98745 -98746 -98747 -98748
v 98749 98750 -98751 -98752 -98753 98754 -98755 -98756 98757 -98758 98759
v -98760 -98761 98762 -98763 98764 98765 -98766 -98767 -98768 98769 -98770
v -98771 98772 -98773 98774 -98775 -98776 98777 -98778 98779 -98780 -98781
v 98782 -98783 98784 -98785 -98786 98787 -98788 98789 -98790 -98791 98792
v -98793 98794 98795 -98796 -98797 -98798 98799 -98800 -98801 98802 -98803
v 98804 -98805 -98806 98807 -98808 98809 -98810 -98811 98812 -98813 98814
v -98815 -98816 98817 -98818 98819 98820 -98821 -98822 -98823 98824 -98825
v -98826 98827 -98828 98829 -98830 -98831 98832 -98833 98834 98835 -98836
v -98837 -98838 98839 -98840 -98841 98842 -98843 98844 -98845 -98846 98847
v -98848 98849 98850 -98851 -98852 -98853 -98854 -98855 -98856 98857 -98858
v 98859 98860 -98861 -98862 -98863 98864 98865 -98866 -98867 -98868 98869
v 98870 -98871 -98872 -98873 98874 -98875 98876 98877 -98878 98879 -98880
v -98881 98882 -98883 -98884 -98885 -98886 98887 -98888 -98889 -98890 98891
v -98892 -98893 -98894 98895 -98896 -98897 -98898 98899 -98900 -98901 -98902
v 98903 -98904 -98905 -98906 98907 -98908 -98909 -98910 98911 -98912 98913
v -98914 98915 98916 -98917 0
c 
c --- [ run-time profiling ] -------------------------------------------------
c 
c process time taken by individual solving procedures
c (percentage relative to process time for solving)
c 
c         0.12   99.93% search
c         0.11   92.68% unstable
c         0.05   41.28% parse
c         0.01    7.19% lucky
c         0.00    0.00% simplify
c   =================================
c         0.12   68.57% solve
c 
c last line shows process time for solving
c (percentage relative to total process time)
c 
c --- [ statistics ] ---------------------------------------------------------
c 
c chronological:               249        39.71 %  of conflicts
c conflicts:                   627      5426.60    per second
c decisions:                  2629     22753.63    per second
c fixed:                     27784        28.09 %  of all variables
c learned:                     582        92.82 %  per conflict
c learned_lits:              23989       100.00 %  learned literals
c minimized:                     0         0.00 %  learned literals
c shrunken:                   3331        13.89 %  learned literals
c minishrunken:               2432        10.14 %  learned literals
c otfs:                          9         1.44 %  of conflict
c propagations:            1491429        12.91 M  per second
c restarts:                     13        48.23    interval
c subsumed:                     22         0.01 %  of all clauses
c strengthened:                  9         0.00 %  of all clauses
c 
c seconds are measured in process time for solving
c 
c --- [ resources ] ----------------------------------------------------------
c 
c total process time since initialization:         0.17    seconds
c total real time since initialization:            0.18    seconds
c maximum resident set size of process:           48.31    MB
c 
c --- [ shutting down ] ------------------------------------------------------
c 
c exit 10
